<number of tasks>
100

<cycle time>
1000

<order strength>
0.896


<task times>
1 122
2 195
3 117
4 144
5 106
6 45
7 97
8 26
9 161
10 47
11 280
12 348
13 172
14 90
15 157
16 72
17 362
18 146
19 30
20 316
21 302
22 175
23 187
24 145
25 97
26 60
27 85
28 184
29 59
30 128
31 180
32 96
33 129
34 37
35 232
36 108
37 218
38 116
39 48
40 179
41 213
42 33
43 211
44 103
45 99
46 164
47 143
48 214
49 296
50 110
51 165
52 233
53 163
54 103
55 143
56 86
57 53
58 78
59 126
60 186
61 47
62 122
63 123
64 230
65 72
66 60
67 94
68 39
69 83
70 76
71 138
72 167
73 129
74 236
75 232
76 113
77 223
78 72
79 39
80 286
81 72
82 87
83 139
84 128
85 36
86 104
87 76
88 185
89 27
90 260
91 97
92 270
93 120
94 186
95 58
96 127
97 149
98 49
99 212
100 240

<precedence relations>
1,6
1,7
2,4
2,5
2,7
3,4
3,5
3,6
3,7
4,8
4,9
4,10
4,11
5,8
5,9
5,10
5,11
6,8
6,9
6,10
6,11
7,8
7,9
7,10
7,11
8,12
8,13
8,14
9,12
9,13
9,14
10,12
10,13
10,14
11,12
11,13
11,14
12,15
12,16
12,17
12,18
12,19
13,15
13,16
13,17
13,18
13,19
14,15
14,16
14,17
14,18
14,19
15,20
15,21
15,22
16,20
16,21
16,22
17,20
17,21
17,22
18,20
18,21
18,22
19,20
19,21
19,22
20,23
20,24
20,25
20,26
21,23
21,24
21,25
21,26
22,23
22,24
22,25
22,26
23,27
23,28
23,29
24,27
24,28
24,29
25,27
25,28
25,29
26,27
26,28
26,29
27,30
27,31
27,32
28,30
28,31
28,32
29,30
29,31
29,32
30,33
30,34
30,35
30,36
30,37
31,33
31,34
31,35
31,36
31,37
32,33
32,34
32,35
32,36
33,53
34,55
34,62
35,41
36,38
36,39
37,38
37,39
38,40
38,41
38,42
39,40
39,41
39,42
40,43
40,44
41,43
41,44
42,43
42,44
43,45
43,46
43,47
43,48
44,45
44,46
44,48
45,49
45,50
45,51
45,52
46,49
46,50
47,49
47,50
47,51
47,56
48,49
48,50
48,51
48,52
49,53
49,68
50,53
50,54
50,55
51,53
51,60
52,54
52,56
53,58
54,57
54,59
55,66
55,69
56,57
56,58
56,59
57,60
57,61
57,62
58,61
59,61
59,68
60,66
61,63
61,64
61,69
62,63
62,64
62,65
63,67
63,71
63,74
64,70
65,68
65,69
66,68
66,70
66,71
67,72
67,73
67,78
68,74
69,74
71,72
71,73
71,78
72,75
72,77
72,96
73,75
73,79
73,81
73,84
73,87
74,76
74,78
75,82
75,88
76,80
76,85
77,79
77,82
77,93
78,81
78,90
78,94
79,85
79,98
80,83
80,84
81,93
83,87
83,88
84,86
84,88
84,89
85,99
86,93
87,89
87,90
88,90
89,94
89,96
90,91
90,92
90,93
90,95
92,98
95,97
95,98
95,99
96,99
98,100

<end>
